PROBLEM NAME: eil51_n7
KNAPSACK DATA TYPE: multiple strongly correlated
DIMENSION: 7
NUMBER OF ITEMS: 6
CAPACITY OF KNAPSACK: 2687
MIN SPEED: 0.1
MAX SPEED: 1
RENTING RATIO: 5.11
EDGE_WEIGHT_TYPE: CEIL_2D
NODE_COORD_SECTION	(INDEX, X, Y):
1	42	57
2	7	38
3	30	48
4	45	35
5	5	6
6	56	37
7	30	40
ITEMS SECTION	(INDEX, PROFIT, WEIGHT, ASSIGNED NODE NUMBER):
1	1008	808	3
2	927	727	7
3	910	710	2
4	481	281	5
5	418	218	4
6	412	212	6
